c A SAT instance generated from a 3-CNF formula that had 16 clauses and 8 variables
p cnf 8 16
3 -1 -7 0
2 8 7 0
-2 -3 6 0
-2 -4 5 0
6 8 2 0
4 1 6 0
6 -1 7 0
-1 -5 3 0
-7 5 3 0
-7 3 1 0
-6 7 4 0
3 -4 7 0
7 8 -2 0
-1 -6 5 0
3 7 -4 0
3 -6 -2 0
